20	5
0	7	6	7	2	3	1	5	4
1	2	18	16
2	3	18	19	12
3	3	9	18	13
4	3	12	10	15
5	1	9
6	1	16
7	1	14
8	1	11
9	1	20
10	1	13
11	1	17
12	3	9	8	16
13	3	20	16	8
14	1	10
15	2	13	18
16	1	21
17	1	21
18	1	21
19	1	21
20	1	21
21	0
0	0	0	0	0	0	0
1	1	5	1	0	0	1
2	2	3	0	0	0	5
3	4	1	3	5	4	0
4	2	1	4	1	2	5
5	8	4	1	0	5	5
6	7	3	0	2	0	0
7	6	4	0	0	4	0
8	9	5	2	2	4	1
9	10	5	4	4	2	1
10	5	2	5	5	4	2
11	9	1	1	5	0	0
12	3	3	0	3	0	0
13	10	3	4	2	3	3
14	3	0	4	5	2	0
15	1	1	3	1	0	1
16	1	4	2	0	1	5
17	5	4	3	5	3	3
18	4	3	4	2	1	2
19	10	5	1	1	0	0
20	10	1	0	3	1	5
21	0	0	0	0	0	0
13	8	8	10	11
